12 13
8 19
28 38
27 9
9 16
29 42
13 20
25 6
21 25
19 50
23 21
11 16
18 40
20 31
27 36
24 41
16 42
5 35
15 34
19 48
30 39
7 43
21 10
10 39
7 9
12 42
30 35
19 14
5 40
5 2
11 33
5 44
22 7
8 29
23 12
27 32
12 44
22 15
6 26
27 10
14 5
12 5
25 43
20 30
28 18
13 6
8 24
15 8
22 30
20 36
